p cnf 137 499
1 -2 -3 0
-1 2 -3 0
1 2 3 0
-1 -2 3 0
-3 4 -5 0
3 -4 -5 0
-3 -4 5 0
3 4 5 0
8 6 0
8 7 0
-6 -7 -8 0
6 -8 -9 0
-6 8 -9 0
6 8 9 0
-6 -8 9 0
9 10 -11 0
-9 -10 -11 0
9 -10 11 0
-9 10 11 0
-13 -12 0
-13 10 0
12 -10 13 0
14 13 0
14 1 0
-13 -1 -14 0
-11 14 -15 0
11 -14 -15 0
-11 -14 15 0
11 14 15 0
16 10 0
16 -2 0
-10 2 -16 0
17 16 0
17 -3 0
-16 3 -17 0
-19 17 0
-19 18 0
-17 -18 19 0
-15 -19 -20 0
15 19 -20 0
-15 19 20 0
15 -19 20 0
-21 5 0
-21 20 0
-5 -20 21 0
13 -7 -22 0
-13 7 -22 0
13 7 22 0
-13 -7 22 0
23 7 0
23 2 0
-7 -2 -23 0
24 23 0
24 -10 0
-23 10 -24 0
24 4 -25 0
-24 -4 -25 0
24 -4 25 0
-24 4 25 0
22 -25 -26 0
-22 25 -26 0
22 25 26 0
-22 -25 26 0
-28 29 -30 0
28 -29 -30 0
-28 -29 30 0
28 29 30 0
-31 13 0
-31 -30 0
-13 30 31 0
27 -31 -32 0
-27 31 -32 0
27 31 32 0
-27 -31 32 0
33 -7 0
33 27 0
7 -27 -33 0
33 6 -34 0
-33 -6 -34 0
33 -6 34 0
-33 6 34 0
35 32 0
35 34 0
-32 -34 -35 0
-36 10 0
-36 35 0
-10 -35 36 0
-26 36 -37 0
26 -36 -37 0
-26 -36 37 0
26 36 37 0
21 37 -38 0
-21 -37 -38 0
21 -37 38 0
-21 37 38 0
-12 7 -39 0
12 -7 -39 0
-12 -7 39 0
12 7 39 0
40 8 0
40 -28 0
-8 28 -40 0
41 -34 0
41 40 0
34 -40 -41 0
42 33 0
42 41 0
-33 -41 -42 0
30 -7 -43 0
-30 7 -43 0
30 7 43 0
-30 -7 43 0
-43 18 -44 0
43 -18 -44 0
-43 -18 44 0
43 18 44 0
-42 44 -45 0
42 -44 -45 0
-42 -44 45 0
42 44 45 0
39 -45 -46 0
-39 45 -46 0
39 45 46 0
-39 -45 46 0
-1 41 -47 0
1 -41 -47 0
-1 -41 47 0
1 41 47 0
48 -18 0
48 47 0
18 -47 -48 0
-49 48 0
-49 -28 0
-48 28 49 0
-50 18 0
-50 -28 0
-18 28 50 0
-51 -49 0
-51 -50 0
49 50 51 0
52 46 0
52 51 0
-46 -51 -52 0
-54 -29 0
-54 -53 0
29 53 54 0
55 -52 0
55 54 0
52 -54 -55 0
-56 -11 0
-56 24 0
11 -24 56 0
57 -31 0
57 -8 0
31 8 -57 0
-58 56 0
-58 57 0
-56 -57 58 0
-60 59 0
-60 -1 0
-59 1 60 0
-61 58 0
-61 -60 0
-58 60 61 0
-13 23 -62 0
13 -23 -62 0
-13 -23 62 0
13 23 62 0
-63 62 0
-63 -16 0
-62 16 63 0
64 -63 0
64 -50 0
63 50 -64 0
65 -27 0
65 -27 0
27 -65 0
-64 65 -66 0
64 -65 -66 0
-64 -65 66 0
64 65 66 0
67 -61 0
67 -66 0
61 66 -67 0
55 -67 -68 0
-55 67 -68 0
55 67 68 0
-55 -67 68 0
-69 -2 0
-69 -7 0
2 7 69 0
63 -69 -70 0
-63 69 -70 0
63 69 70 0
-63 -69 70 0
71 69 0
71 31 0
-69 -31 -71 0
72 -70 0
72 -71 0
70 71 -72 0
73 -68 0
73 72 0
68 -72 -73 0
74 29 0
74 -6 0
-29 6 -74 0
75 3 0
75 -74 0
-3 74 -75 0
-76 75 0
-76 35 0
-75 -35 76 0
16 31 -77 0
-16 -31 -77 0
16 -31 77 0
-16 31 77 0
78 77 0
78 -33 0
-77 33 -78 0
79 -76 0
79 78 0
76 -78 -79 0
-18 40 -80 0
18 -40 -80 0
-18 -40 80 0
18 40 80 0
69 -80 -81 0
-69 80 -81 0
69 80 81 0
-69 -80 81 0
-82 -17 0
-82 33 0
17 -33 82 0
-83 -81 0
-83 82 0
81 -82 83 0
-84 -79 0
-84 83 0
79 -83 84 0
85 -73 0
85 -84 0
73 84 -85 0
38 85 -86 0
-38 -85 -86 0
38 -85 86 0
-38 85 86 0
13 35 -87 0
-13 -35 -87 0
13 -35 87 0
-13 35 87 0
18 40 -88 0
-18 -40 -88 0
18 -40 88 0
-18 40 88 0
89 87 0
89 -88 0
-87 88 -89 0
-90 86 0
-90 89 0
-86 -89 90 0
91 47 0
91 -9 0
-47 9 -91 0
92 -44 0
92 2 0
44 -2 -92 0
93 -40 0
93 74 0
40 -74 -93 0
94 -92 0
94 -93 0
92 93 -94 0
27 -10 -95 0
-27 10 -95 0
27 10 95 0
-27 -10 95 0
-96 -48 0
-96 -95 0
48 95 96 0
63 -30 -97 0
-63 30 -97 0
63 30 97 0
-63 -30 97 0
-96 97 -98 0
96 -97 -98 0
-96 -97 98 0
96 97 98 0
99 18 0
99 39 0
-18 -39 -99 0
-100 33 0
-100 -3 0
-33 3 100 0
-101 100 0
-101 -74 0
-100 74 101 0
50 6 -102 0
-50 -6 -102 0
50 -6 102 0
-50 6 102 0
-103 101 0
-103 -102 0
-101 102 103 0
-10 -100 -104 0
10 100 -104 0
-10 100 104 0
10 -100 104 0
-105 103 0
-105 104 0
-103 -104 105 0
-18 -4 -106 0
18 4 -106 0
-18 4 106 0
18 -4 106 0
106 -107 -108 0
-106 107 -108 0
106 107 108 0
-106 -107 108 0
-109 9 0
-109 34 0
-9 -34 109 0
-108 109 -110 0
108 -109 -110 0
-108 -109 110 0
108 109 110 0
-105 110 -111 0
105 -110 -111 0
-105 -110 111 0
105 110 111 0
112 99 0
112 -111 0
-99 111 -112 0
-113 -10 0
-113 16 0
10 -16 113 0
114 23 0
114 8 0
-23 -8 -114 0
115 -33 0
115 31 0
33 -31 -115 0
116 -115 0
116 10 0
115 -10 -116 0
114 116 -117 0
-114 -116 -117 0
114 -116 117 0
-114 116 117 0
118 113 0
118 117 0
-113 -117 -118 0
119 112 0
119 -118 0
-112 118 -119 0
120 -27 0
120 -39 0
27 39 -120 0
115 28 -121 0
-115 -28 -121 0
115 -28 121 0
-115 28 121 0
122 120 0
122 -121 0
-120 121 -122 0
123 -119 0
123 -122 0
119 122 -123 0
-124 115 0
-124 34 0
-115 -34 124 0
123 124 -125 0
-123 -124 -125 0
123 -124 125 0
-123 124 125 0
-126 -98 0
-126 125 0
98 -125 126 0
-127 29 0
-127 10 0
-29 -10 127 0
-126 127 -128 0
126 -127 -128 0
-126 -127 128 0
126 127 128 0
-63 18 -129 0
63 -18 -129 0
-63 -18 129 0
63 18 129 0
-130 77 0
-130 -63 0
-77 63 130 0
131 129 0
131 -130 0
-129 130 -131 0
132 128 0
132 131 0
-128 -131 -132 0
133 -94 0
133 -132 0
94 132 -133 0
-134 -63 0
-134 -69 0
63 69 134 0
-133 -134 -135 0
133 134 -135 0
-133 134 135 0
133 -134 135 0
-136 91 0
-136 -135 0
-91 135 136 0
-90 136 -137 0
90 -136 -137 0
-90 -136 137 0
90 136 137 0
-108 113 101 9 -103 0
107 105 96 6 0
24 -111 -30 0
30 35 47 125 100 0
10 115 -29 0
-28 -86 -57 -36 -136 41 0
20 -136 118 0
-108 -56 38 -15 -24 0
4 109 0
77 -90 -3 -25 0
-80 6 86 -127 -125 -73 0
39 118 -112 -101 -77 85 0
124 -60 115 -36 -118 42 0
86 101 -27 0
-137 -106 48 0
-97 68 0
-130 21 -54 116 0
-70 127 95 129 -18 0
-115 -62 0
-59 -68 133 -69 -83 0
-127 25 -50 89 70 0
-97 38 0
-64 73 46 72 -43 0
-80 57 -83 -115 -37 60 0
127 -33 -123 -83 0
-76 -21 0
39 52 0
-59 24 0
32 79 93 0
25 -130 108 -123 0
31 -113 63 -79 6 47 0
62 81 87 82 0
-120 19 110 129 77 0
-131 49 87 0
-86 -21 88 40 0
-29 116 94 0
-24 -67 52 -60 0
-134 72 124 -9 34 0
27 -84 103 -69 127 89 0
-38 -54 0
25 20 64 60 76 100 0
-130 -19 57 -13 0
27 -96 0
124 -37 0
-110 93 -94 -79 -89 0
65 135 94 35 0
54 -82 0
126 -13 40 -84 -39 69 0
55 109 -131 75 -126 -71 0
21 50 -83 -9 -117 0
-74 66 -107 63 0
-82 55 -91 0
113 -37 -78 -106 0
13 -69 -50 -44 49 0
-124 52 125 -105 72 -119 0
-18 123 113 0
14 -75 -94 -102 -79 -85 0
88 -120 -9 137 -42 0
38 -80 111 0
-3 -55 -115 58 -104 0
71 -102 -70 90 -103 0
-126 -33 43 0
16 -49 -86 -123 -96 -69 0
-134 27 39 0
-48 -43 20 -108 0
-58 63 -85 0
-85 -124 118 55 -59 0
119 -132 46 0
123 -93 -120 0
69 55 93 103 0
42 -117 107 0
-126 109 -43 0
-82 105 13 -81 0
-7 49 -16 0
117 4 57 0
-16 -36 -50 4 -70 0
-46 105 -60 49 35 0
75 40 9 -57 -43 0
105 63 -52 0
-33 -97 71 70 -38 -74 0
-34 64 0
-113 55 23 -39 -122 -44 0
-93 -83 88 0
137 0
